1442
96 94 43 37 36 19 79 82 24 45 14 76 98 85 80 39 55 8 68 41 4 13 87 75 6 64 81 3 35 69 95 47 9 99 93 90 56 70 27 53 72 15 5 74 83 48 26 51 66 20 7 30 10 50 78 65 97 62 58 31 84 28 29 33 32 46 23 67 57 92 2 42 34 25 38 77 91 1 89 17 40 21 73 60 71 18 59 52 63 16 11 49 54 88 86 22 61 44 12 
